qbf_easy_train/easy_946_SAT.qdimacs
p cnf 28 71
a 1 15 0
e 2 3 4 5 6 7 8 9 10 11 12 13 14 16 17 18 19 20 21 22 23 24 25 26 27 28 0
1 2 -3 0
-1 -2 -3 0
1 -2 3 0
-1 2 3 0
-5 4 0
-5 -4 0
-6 5 0
-6 2 0
-5 -2 6 0
-8 2 0
-8 -2 0
10 -8 0
10 9 0
8 -9 -10 0
11 -7 0
11 -10 0
7 10 -11 0
-6 11 -12 0
6 -11 -12 0
-6 -11 12 0
6 11 12 0
13 -10 0
13 -7 0
10 7 -13 0
14 -12 0
14 13 0
12 -13 -14 0
15 7 -16 0
-15 -7 -16 0
15 -7 16 0
-15 7 16 0
5 -2 -17 0
-5 2 -17 0
5 2 17 0
-5 -2 17 0
19 7 0
19 18 0
-7 -18 -19 0
-20 -17 0
-20 19 0
17 -19 20 0
-21 10 0
-21 18 0
-10 -18 21 0
-21 -22 -23 0
21 22 -23 0
-21 22 23 0
21 -22 23 0
-24 -5 0
-24 -23 0
5 23 24 0
25 20 0
25 -24 0
-20 24 -25 0
-26 16 0
-26 25 0
-16 -25 26 0
-27 14 0
-27 -26 0
-14 26 27 0
-3 27 -28 0
3 -27 -28 0
-3 -27 28 0
3 27 28 0
23 -19 28 24 -4 -22 -8 -11 0
-4 -19 -9 14 -18 -6 0
3 8 -16 -5 11 22 0
-16 21 20 -27 0
5 -19 4 10 -23 13 0
6 -28 -16 9 0
28 0
