sat_easy_train/easy_946_SAT.dimacs
p cnf 115 372
3 1 0
3 -2 0
-1 2 -3 0
-3 -4 -5 0
3 4 -5 0
-3 4 5 0
3 -4 5 0
-6 5 0
-6 -3 0
-5 3 6 0
-10 -8 0
-10 -9 0
8 9 10 0
12 -7 0
12 -11 0
7 11 -12 0
-10 -12 -13 0
10 12 -13 0
-10 12 13 0
10 -12 13 0
-14 -13 0
-14 13 0
-15 -7 0
-15 -14 0
7 14 15 0
16 6 0
16 15 0
-6 -15 -16 0
17 -18 -19 0
-17 18 -19 0
17 18 19 0
-17 -18 19 0
-16 -19 -20 0
16 19 -20 0
-16 19 20 0
16 -19 20 0
22 -2 0
22 21 0
2 -21 -22 0
-23 9 0
-23 22 0
-9 -22 23 0
-23 -11 -24 0
23 11 -24 0
-23 11 24 0
23 -11 24 0
26 -25 0
26 -25 0
25 -26 0
27 -7 0
27 -26 0
7 26 -27 0
28 27 0
28 -4 0
-27 4 -28 0
24 28 -29 0
-24 -28 -29 0
24 -28 29 0
-24 28 29 0
-20 -29 -30 0
20 29 -30 0
-20 29 30 0
20 -29 30 0
-31 -1 0
-31 -7 0
1 7 31 0
-32 -3 0
-32 -9 0
3 9 32 0
-33 31 0
-33 -32 0
-31 32 33 0
-35 33 0
-35 34 0
-33 -34 35 0
-37 -26 0
-37 -36 0
26 36 37 0
-38 -26 0
-38 37 0
26 -37 38 0
39 11 0
39 38 0
-11 -38 -39 0
40 -35 0
40 -39 0
35 39 -40 0
41 40 0
41 31 0
-40 -31 -41 0
43 42 0
43 31 0
-42 -31 -43 0
-44 -43 0
-44 5 0
43 -5 44 0
-41 -44 -45 0
41 44 -45 0
-41 44 45 0
41 -44 45 0
11 -17 -46 0
-11 17 -46 0
11 17 46 0
-11 -17 46 0
-47 46 0
-47 -8 0
-46 8 47 0
48 47 0
48 -17 0
-47 17 -48 0
49 5 0
49 47 0
-5 -47 -49 0
-50 27 0
-50 49 0
-27 -49 50 0
51 48 0
51 -50 0
-48 50 -51 0
52 -47 0
52 -51 0
47 51 -52 0
-3 -10 -53 0
3 10 -53 0
-3 10 53 0
3 -10 53 0
-53 5 -54 0
53 -5 -54 0
-53 -5 54 0
53 5 54 0
56 54 0
56 55 0
-54 -55 -56 0
57 9 0
57 41 0
-9 -41 -57 0
58 57 0
58 31 0
-57 -31 -58 0
56 58 -59 0
-56 -58 -59 0
56 -58 59 0
-56 58 59 0
60 -52 0
60 -59 0
52 59 -60 0
61 45 0
61 -60 0
-45 60 -61 0
62 -21 0
62 -21 0
21 -62 0
61 -62 -63 0
-61 62 -63 0
61 62 63 0
-61 -62 63 0
30 -63 -64 0
-30 63 -64 0
30 63 64 0
-30 -63 64 0
54 2 -65 0
-54 -2 -65 0
54 -2 65 0
-54 2 65 0
-18 -65 -66 0
18 65 -66 0
-18 65 66 0
18 -65 66 0
67 35 0
67 -66 0
-35 66 -67 0
68 53 0
68 -43 0
-53 43 -68 0
68 65 -69 0
-68 -65 -69 0
68 -65 69 0
-68 65 69 0
70 -67 0
70 69 0
67 -69 -70 0
-71 64 0
-71 -70 0
-64 70 71 0
-72 1 0
-72 -18 0
-1 18 72 0
73 -17 0
73 -72 0
17 72 -73 0
-74 5 0
-74 -73 0
-5 73 74 0
-75 53 0
-75 21 0
-53 -21 75 0
76 -23 0
76 75 0
23 -75 -76 0
77 -74 0
77 76 0
74 -76 -77 0
8 4 -78 0
-8 -4 -78 0
8 -4 78 0
-8 4 78 0
-79 17 0
-79 -78 0
-17 78 79 0
79 -66 -80 0
-79 66 -80 0
79 66 80 0
-79 -66 80 0
-81 80 0
-81 -80 0
77 -81 -82 0
-77 81 -82 0
77 81 82 0
-77 -81 82 0
83 -34 0
83 14 0
34 -14 -83 0
-13 -34 -84 0
13 34 -84 0
-13 34 84 0
13 -34 84 0
85 34 0
85 -84 0
-34 84 -85 0
-86 -83 0
-86 -85 0
83 85 86 0
-87 82 0
-87 86 0
-82 -86 87 0
88 -71 0
88 87 0
71 -87 -88 0
12 11 -89 0
-12 -11 -89 0
12 -11 89 0
-12 11 89 0
40 -89 -90 0
-40 89 -90 0
40 89 90 0
-40 -89 90 0
-91 -88 0
-91 90 0
88 -90 91 0
93 92 0
93 -22 0
-92 22 -93 0
-94 65 0
-94 83 0
-65 -83 94 0
95 38 0
95 -54 0
-38 54 -95 0
96 -5 0
96 84 0
5 -84 -96 0
-97 -4 0
-97 -96 0
4 96 97 0
-98 9 0
-98 97 0
-9 -97 98 0
-99 95 0
-99 -98 0
-95 98 99 0
43 55 -100 0
-43 -55 -100 0
43 -55 100 0
-43 55 100 0
101 17 0
101 100 0
-17 -100 -101 0
21 101 -102 0
-21 -101 -102 0
21 -101 102 0
-21 101 102 0
-103 -31 0
-103 72 0
31 -72 103 0
104 103 0
104 -54 0
-103 54 -104 0
105 -102 0
105 -104 0
102 104 -105 0
66 -73 -106 0
-66 73 -106 0
66 73 106 0
-66 -73 106 0
-107 -105 0
-107 106 0
105 -106 107 0
-108 99 0
-108 107 0
-99 -107 108 0
109 -94 0
109 -108 0
94 108 -109 0
93 109 -110 0
-93 -109 -110 0
93 -109 110 0
-93 109 110 0
111 -47 0
111 -41 0
47 41 -111 0
112 84 0
112 48 0
-84 -48 -112 0
111 -112 -113 0
-111 112 -113 0
111 112 113 0
-111 -112 113 0
-114 110 0
-114 -113 0
-110 113 114 0
-115 -91 0
-115 114 0
91 -114 115 0
-39 79 -31 -13 62 0
-20 -90 0
-24 -49 92 112 0
53 18 19 76 -32 0
-101 89 2 -1 40 0
86 51 -46 -107 5 0
-67 -24 -40 37 0
115 109 0
-59 -56 57 0
19 49 0
61 83 -25 9 107 17 0
-50 106 0
12 -42 0
113 36 25 85 0
-38 -27 84 0
-71 22 -43 0
-75 -67 53 113 0
-1 102 12 0
99 57 27 -96 -4 -66 0
-114 -50 0
17 -22 -90 4 26 -60 0
-92 52 10 0
-79 -73 -15 87 0
61 80 112 48 -7 -110 0
32 -73 -30 -96 90 0
-28 53 0
-32 -80 -13 0
-78 60 51 89 -16 23 0
-115 -44 0
-64 115 4 0
-105 -1 -56 102 39 -43 0
113 -9 0
64 -78 -20 0
-30 -115 -17 -101 -71 23 0
-53 -71 -10 -43 0
-25 47 22 0
-44 -48 -97 73 -115 0
113 -32 0
61 -84 -63 0
108 -112 109 -79 -101 0
92 26 61 12 -10 -40 0
-74 -19 12 0
79 -97 0
22 -10 -30 0
-80 23 1 0
108 -77 89 -47 0
43 -70 21 0
-37 -61 -52 0
115 0
